0 0 0 0
0 1 0 0
0 2 1 0
0 3 0 0
0 4 0 2
0 5 1 1
0 6 1 6
0 7 2 1
0 8 0 7
0 9 0 6
0 10 0 8
0 11 1 2
0 12 0 9
0 13 0 11
0 14 2 8
0 15 0 15
0 16 0 11
0 17 0 9
0 18 0 9
0 19 0 17
0 20 1 15
0 21 0 12
0 22 0 17
0 23 0 17
0 24 0 20
0 25 0 18
0 26 0 16
0 27 2 13
0 28 1 19
0 29 0 23
0 30 2 20
0 31 0 27
